data/solutions/recovery/degenerate/intermediate/binding/degenerate_intermediate_instance23/72.sol
Elapsed time: 0.04
Upper bound: 234225328.0
Planning weighted value: 8.93402284874e+11
C[0]=234225328.0
C[1]=233962718.0
C[2]=233943501.0
C[3]=233050216.0
C[4]=230177367.0
C[5]=225583276.0
C[6]=223421273.0
C[7]=218074994.0
C[8]=216769042.0
C[9]=216726441.0
C[10]=216471744.0
C[11]=0.0
y[0]=4
y[1]=1
y[2]=5
y[3]=10
y[4]=10
y[5]=9
y[6]=1
y[7]=5
y[8]=2
y[9]=5
y[10]=8
y[11]=6
y[12]=4
y[13]=3
y[14]=2
y[15]=8
y[16]=4
y[17]=7
y[18]=3
y[19]=4
y[20]=3
y[21]=7
y[22]=5
y[23]=0
y[24]=9
y[25]=2
y[26]=9
y[27]=2
y[28]=0
y[29]=3
y[30]=0
y[31]=10
y[32]=7
y[33]=7
y[34]=0
y[35]=0
y[36]=1
y[37]=4
y[38]=6
y[39]=4
y[40]=3
y[41]=8
y[42]=8
y[43]=5
y[44]=9
y[45]=1
y[46]=4
y[47]=1
y[48]=4
y[49]=1
y[50]=1
y[51]=3
y[52]=6
y[53]=1
y[54]=9
y[55]=4
y[56]=8
y[57]=7
y[58]=2
y[59]=1
y[60]=6
y[61]=8
y[62]=6
y[63]=2
y[64]=10
y[65]=0
y[66]=8
y[67]=5
y[68]=10
y[69]=9
y[70]=10
y[71]=7
y[72]=5
y[73]=6
y[74]=9
y[75]=2
y[76]=10
y[77]=5
